8
0, 677, 688, 156, 475, 556, 590, 684
677, 0, 265, 611, 860, 661, 609, 563
688, 265, 0, 681, 710, 458, 391, 314
156, 611, 681, 0, 618, 654, 672, 746
475, 860, 710, 618, 0, 287, 364, 494
556, 661, 458, 654, 287, 0, 77, 206
590, 609, 391, 672, 364, 77, 0, 130
684, 563, 314, 746, 494, 206, 130, 0
